119436
58,52,7,82,5,60,14,68,24,41,71,50,6,55,16,76,57,73,31,81,21,43,67,30,23,47,18,4,74,26,80,59,46,48,33,56,77,40,51,38,62,3,49,64,17,36,12,0,9,28,63,72,44,79,61,69,13,75,66,19,65,35,25,45,53,70,20,8,39,10,32,15,37,34,1,42,2,11,22,54,29,78,27,58